p tw 47 55
1 2
2 13
3 4
4 5
5 6
6 7
7 8
8 9
9 10
10 11
11 12
12 14
13 24
14 15
15 16
15 38
16 17
17 18
18 19
18 38
19 20
20 21
21 22
22 23
22 31
23 25
24 35
25 26
25 33
26 27
27 28
27 31
28 29
29 30
30 31
30 33
31 32
32 41
33 34
34 36
34 38
35 43
36 37
37 38
38 39
39 40
40 41
41 42
43 44
44 45
44 3
45 46
46 47
46 21
47 38
